
List of user-set options:

                                    Name   Value                used
                           compl_inf_tol = 1                     yes
                         constr_viol_tol = 1                     yes
                            dual_inf_tol = 1000                  yes
                           linear_solver = ma97                  yes
                              ma86_small = 1e-30                  no
                                  ma86_u = 0.0001                 no
                              ma97_order = best                  yes
                              ma97_small = 1e-30                 yes
                            ma97_switch1 = at_start              yes
                            ma97_switch2 = od_hd_reuse           yes
                                  ma97_u = 1e-06                 yes
                               ma97_umax = 0.5                   yes
                                max_iter = 1000                  yes
                    max_refinement_steps = 20                    yes
                    min_refinement_steps = 5                     yes
                                 mu_init = 1e-06                 yes
           mu_superlinear_decrease_power = 1.25                  yes
                   nlp_scaling_min_value = 1e-08                 yes
                        option_file_name = Preset_Case:_678_NCP.opt  yes
                             output_file = ./tmp/Preset_Case:_678_NCP.output  yes
                      print_user_options = yes                   yes
        required_infeasibility_reduction = 1                      no
                                     tol = 1e-08                 yes
                   warm_start_bound_frac = 1e-20                 yes
                   warm_start_bound_push = 1e-20                 yes
                   warm_start_init_point = yes                   yes
              warm_start_mult_bound_push = 1e-20                 yes
                warm_start_mult_init_max = 1e+40                 yes
             warm_start_slack_bound_frac = 1e-20                 yes
             warm_start_slack_bound_push = 1e-20                 yes

******************************************************************************
This program contains Ipopt, a library for large-scale nonlinear optimization.
 Ipopt is released as open source code under the Eclipse Public License (EPL).
         For more information visit http://projects.coin-or.org/Ipopt
******************************************************************************

This is Ipopt version 3.12.10, running with linear solver ma97.

Number of nonzeros in equality constraint Jacobian...:   117167
Number of nonzeros in inequality constraint Jacobian.:      213
Number of nonzeros in Lagrangian Hessian.............:    47513

Total number of variables............................:    29977
                     variables with only lower bounds:    11312
                variables with lower and upper bounds:    15135
                     variables with only upper bounds:        0
Total number of equality constraints.................:    29864
Total number of inequality constraints...............:       25
        inequality constraints with only lower bounds:        4
   inequality constraints with lower and upper bounds:        0
        inequality constraints with only upper bounds:       21

iter    objective    inf_pr   inf_du lg(mu)  ||d||  lg(rg) alpha_du alpha_pr  ls
   0 -1.5872645e-01 1.97e-01 2.00e+00  -6.0 0.00e+00    -  0.00e+00 0.00e+00   0
In iteration 0, 9 Slacks too small, adjusting variable bounds
   1 -1.5872645e-01 1.97e-01 4.46e+02  -6.0 1.04e+10    -  4.45e-14 4.06e-19h  1
   2 -1.5759020e-01 1.89e-01 2.04e+03  -6.0 1.83e+02    -  2.45e-07 3.55e-02h  4
   3 -1.5759020e-01 1.89e-01 2.03e+03  -6.0 1.90e-01    -  9.89e-01 1.61e-03h  1
   4 -1.5767975e-01 1.87e-01 1.98e+03  -6.0 6.17e+02    -  2.83e-03 1.35e-02h  1
   5 -1.5785177e-01 1.85e-01 2.00e+03  -6.0 6.71e+02    -  4.11e-02 1.32e-02h  4
   6r-1.5785177e-01 1.85e-01 9.99e+02  -0.7 0.00e+00  -4.0 0.00e+00 4.83e-07R  3
   7r-1.5810700e-01 1.84e-01 9.99e+02  -0.7 2.00e+06    -  2.49e-07 5.51e-07f  1
   8r-1.5784517e-01 1.81e-01 1.51e+03  -0.7 4.56e+03    -  5.62e-06 1.55e-05f  1
   9 -1.5784751e-01 1.81e-01 6.84e+03  -6.0 5.11e+01    -  1.81e-01 3.29e-04h  1
iter    objective    inf_pr   inf_du lg(mu)  ||d||  lg(rg) alpha_du alpha_pr  ls
  10 -1.5982214e-01 1.35e-01 5.28e+06  -6.0 5.37e+01    -  3.35e-04 2.58e-01f  1
  11 -1.5992883e-01 1.31e-01 5.16e+06  -6.0 3.99e+01    -  3.33e-01 2.27e-02h  1
  12 -1.5894546e-01 1.02e-01 4.02e+06  -6.0 5.90e+01    -  2.52e-01 2.22e-01H  1
  13 -1.5860549e-01 9.47e-02 3.72e+06  -6.0 9.63e+01    -  2.23e-01 7.38e-02h  3
  14 -1.5851166e-01 8.70e-02 3.42e+06  -6.0 9.50e+01    -  4.63e-01 8.11e-02h  3
  15 -1.5926472e-01 7.80e-02 3.06e+06  -6.0 1.26e+02    -  4.65e-01 1.03e-01h  3
  16 -1.7045864e-01 9.29e-01 1.71e+06  -6.0 1.84e+02    -  4.54e-01 4.41e-01h  1
  17 -1.7396241e-01 8.97e-01 1.62e+06  -6.0 2.59e+02    -  7.05e-02 5.50e-02h  1
  18 -1.8266737e-01 8.53e-01 1.22e+06  -6.0 1.03e+02    -  9.89e-02 2.44e-01h  1
  19 -1.8807528e-01 9.63e-01 1.02e+06  -6.0 1.04e+02    -  2.35e-02 1.68e-01h  1
iter    objective    inf_pr   inf_du lg(mu)  ||d||  lg(rg) alpha_du alpha_pr  ls
  20 -1.8931414e-01 9.52e-01 9.72e+05  -6.0 1.47e+02    -  1.28e-01 4.56e-02h  1
  21 -1.9356289e-01 1.24e+00 8.15e+05  -6.0 1.53e+02    -  1.90e-01 1.61e-01h  1
  22 -1.9716276e-01 4.37e+00 6.67e+05  -6.0 2.77e+02    -  2.20e-01 1.81e-01h  1
  23 -2.0230836e-01 1.35e+01 4.92e+05  -6.0 2.82e+02    -  2.05e-01 2.63e-01h  1
  24 -2.0551302e-01 1.26e+01 3.98e+05  -6.0 3.25e+02    -  3.40e-01 1.90e-01h  1
  25 -2.0621248e-01 1.21e+01 3.85e+05  -6.0 2.74e+02    -  2.54e-01 3.37e-02h  1
  26 -2.0897187e-01 9.93e+00 3.16e+05  -6.0 4.51e+02    -  4.90e-01 1.80e-01h  1
  27 -2.0874648e-01 9.58e+00 3.04e+05  -6.0 1.44e+01  -4.5 2.06e-02 3.56e-02h  1
  28 -2.0801553e-01 8.09e+00 2.57e+05  -6.0 1.54e+01  -5.0 2.73e-01 1.55e-01h  1
  29 -2.0794709e-01 7.62e+00 2.42e+05  -6.0 1.71e+01  -5.4 7.69e-02 5.87e-02h  1
iter    objective    inf_pr   inf_du lg(mu)  ||d||  lg(rg) alpha_du alpha_pr  ls
  30 -2.0792741e-01 7.57e+00 2.41e+05  -6.0 5.17e+01  -5.9 2.48e-01 6.14e-03h  1
  31 -2.0695905e-01 6.34e+00 2.01e+05  -6.0 1.87e+01  -5.5 3.23e-01 1.63e-01h  1
  32 -2.0714434e-01 6.07e+00 1.93e+05  -6.0 1.18e+02  -6.0 1.01e-01 4.19e-02h  1
  33 -2.0586510e-01 4.70e+00 1.49e+05  -6.0 2.20e+01  -5.5 1.88e-01 2.26e-01h  1
  34 -2.0592380e-01 4.66e+00 1.48e+05  -6.0 1.81e+02  -6.0 3.69e-01 7.69e-03h  1
  35 -2.0502846e-01 4.08e+00 1.30e+05  -6.0 2.56e+01  -5.6 5.09e-01 1.24e-01h  1
  36 -2.0440887e-01 3.46e+00 9.93e+04  -6.0 8.28e+01  -6.1 1.94e-01 2.35e-01h  1
  37 -2.0452112e-01 1.52e+00 3.80e+04  -6.0 5.09e+01  -6.5 9.55e-01 6.17e-01h  1
  38 -2.0718318e-01 9.16e-01 2.39e+04  -6.0 1.13e+02  -7.0 9.87e-01 3.71e-01h  1
  39 -2.1368235e-01 7.88e-01 1.17e+04  -6.0 2.37e+02  -7.5 9.23e-01 5.12e-01h  1
iter    objective    inf_pr   inf_du lg(mu)  ||d||  lg(rg) alpha_du alpha_pr  ls
  40 -2.1412514e-01 7.62e-01 1.13e+04  -6.0 2.50e+03  -8.0 1.61e-02 3.08e-02h  1
  41 -2.1615598e-01 5.68e-01 7.72e+03  -6.0 1.09e+02  -7.5 7.46e-01 3.16e-01h  1
  42 -2.1810620e-01 4.45e-01 5.98e+03  -6.0 3.25e+02  -8.0 2.81e-01 2.26e-01h  1
  43 -2.2129912e-01 1.05e+00 4.65e+03  -6.0 1.17e+03  -8.5 4.05e-01 2.21e-01h  1
  44 -2.2650534e-01 3.45e+00 9.73e+01  -6.0 3.44e+02  -8.1 1.00e+00 1.00e+00h  1
  45 -2.2857702e-01 2.03e+00 4.57e+02  -6.0 6.05e+02  -8.5 3.42e-01 3.53e-01h  1
  46 -2.3051369e-01 2.35e+00 9.74e+04  -6.0 3.05e+03  -9.0 7.79e-03 1.45e-01h  1
  47 -2.3067353e-01 2.19e+00 8.97e+04  -6.0 5.02e+02  -8.6 1.10e-01 7.93e-02h  1
  48 -2.3182464e-01 4.54e+00 7.68e+04  -6.0 2.61e+03  -9.1 1.11e-01 1.44e-01h  1
  49 -2.3246756e-01 9.77e+00 6.79e+04  -6.0 7.67e+03  -9.6 2.51e-04 1.16e-01h  1
iter    objective    inf_pr   inf_du lg(mu)  ||d||  lg(rg) alpha_du alpha_pr  ls
  50 -2.3247933e-01 8.77e+00 6.09e+04  -6.0 5.58e+02  -7.3 2.80e-02 1.03e-01h  1
  51 -2.3249272e-01 8.63e+00 5.99e+04  -6.0 1.75e+03  -6.9 4.09e-01 1.62e-02h  1
  52 -2.3281602e-01 5.14e-01 2.62e+02  -6.0 1.61e+02  -7.4 8.46e-02 1.00e+00h  1
  53 -2.3307471e-01 7.86e-01 1.47e+02  -6.0 4.86e+02  -7.9 8.68e-01 4.08e-01h  1
  54 -2.3411125e-01 1.71e+00 8.02e+00  -6.0 3.46e+02  -8.3 1.00e+00 1.00e+00h  1
  55 -2.3409235e-01 4.00e-03 2.98e+00  -6.0 1.30e+01  -6.1 6.67e-01 1.00e+00h  1
  56 -2.3416200e-01 1.27e-02 9.92e-02  -6.0 1.16e+01  -6.6 1.00e+00 1.00e+00h  1
  57 -2.3435467e-01 6.17e-02 9.91e-02  -6.0 3.56e+01  -7.1 1.00e+00 1.00e+00h  1
  58 -2.3486575e-01 1.80e-01 8.18e-01  -6.0 9.90e+01  -7.5 1.00e+00 1.00e+00h  1
  59 -2.3610764e-01 1.05e+00 5.03e+00  -6.0 2.40e+02  -8.0 1.00e+00 1.00e+00h  1
iter    objective    inf_pr   inf_du lg(mu)  ||d||  lg(rg) alpha_du alpha_pr  ls
  60 -2.3788416e-01 1.92e+00 1.23e+01  -6.0 4.70e+02  -8.5 1.00e+00 6.92e-01h  1
  61 -2.3975796e-01 4.89e+00 5.47e+01  -6.0 6.89e+03  -9.0 2.59e-01 1.21e-01h  1
Error in an AMPL evaluation. Run with "halt_on_ampl_error yes" to see details.
Warning: Cutting back alpha due to evaluation error
  62 -2.4059479e-01 6.59e+00 2.12e+02  -6.0 1.86e+03  -8.5 8.06e-01 1.02e-01h  2
  63 -2.4187179e-01 1.37e+01 1.80e+02  -6.0 7.06e+03  -9.0 2.55e-03 3.90e-02h  1
  64 -2.4188320e-01 1.36e+01 1.85e+02  -6.0 6.04e+02  -6.8 1.62e-02 4.93e-03h  1
  65 -2.4183358e-01 1.33e+01 1.80e+02  -6.0 5.64e+02  -7.3 1.14e-02 1.83e-02h  1
  66 -2.4185023e-01 1.30e+01 1.77e+02  -6.0 6.52e+02  -7.7 2.65e-02 2.37e-02h  1
  67 -2.4213149e-01 1.14e+01 2.28e+02  -6.0 1.60e+02  -8.2 6.24e-01 1.30e-01h  1
  68 -2.4273721e-01 8.50e+00 1.84e+02  -6.0 2.88e+02  -8.7 1.18e-01 2.52e-01h  1
  69 -2.4317945e-01 7.97e+00 1.73e+02  -6.0 2.62e+03  -9.2 6.11e-02 6.24e-02h  1
iter    objective    inf_pr   inf_du lg(mu)  ||d||  lg(rg) alpha_du alpha_pr  ls
  70 -2.4449520e-01 3.74e+00 2.03e+02  -6.0 3.35e+02  -8.7 3.89e-01 5.37e-01h  1
  71 -2.4674535e-01 4.16e+00 4.08e+02  -6.0 8.58e+02  -9.2 2.81e-02 4.53e-01h  1
  72 -2.4926797e-01 2.02e+01 3.93e+02  -6.0 5.03e+03  -9.7 4.78e-02 1.78e-01h  1
  73 -2.5138230e-01 2.77e+01 1.18e+03  -6.0 3.30e+03 -10.2 1.76e-02 2.20e-01h  1
  74 -2.5245771e-01 1.61e+01 5.00e+03  -6.0 4.87e+02  -8.8 4.98e-02 4.68e-01h  1
  75 -2.5231438e-01 1.49e+01 4.65e+03  -6.0 1.23e+03  -9.3 3.63e-01 9.83e-02h  1
  76 -2.5395532e-01 5.59e+00 1.87e+03  -6.0 1.35e+03  -9.8 1.96e-01 7.10e-01h  1
  77 -2.5495241e-01 9.05e+00 1.28e+02  -6.0 2.03e+03 -10.3 3.51e-02 8.99e-01h  1
  78 -2.5498450e-01 7.56e+00 1.20e+02  -6.0 1.74e+02  -8.9 4.49e-01 1.65e-01h  1
  79 -2.5488063e-01 3.14e-01 6.25e+01  -6.0 3.28e+02  -9.4 1.81e-01 1.00e+00h  1
iter    objective    inf_pr   inf_du lg(mu)  ||d||  lg(rg) alpha_du alpha_pr  ls
  80 -2.5508078e-01 3.00e-01 3.59e+01  -6.0 7.93e+02  -9.9 4.31e-01 4.16e-01h  1
  81 -2.5520875e-01 2.02e-01 1.81e+01  -6.0 3.24e+02  -9.5 5.39e-01 8.60e-01h  1
Error in an AMPL evaluation. Run with "halt_on_ampl_error yes" to see details.
Warning: Cutting back alpha due to evaluation error
  82 -2.5523922e-01 1.58e-01 1.14e+01  -6.0 9.29e+02  -9.9 9.79e-01 2.24e-01h  2
  83 -2.5524537e-01 1.44e-01 1.41e+01  -6.0 3.23e+02  -9.5 4.23e-01 8.97e-02h  1
  84 -2.5541467e-01 1.56e+00 2.67e+00  -6.0 1.11e+03 -10.0 6.85e-01 1.00e+00h  1
  85 -2.5545147e-01 8.15e-01 2.73e+00  -6.0 4.69e+02  -9.6 3.82e-01 5.12e-01h  1
  86 -2.5546686e-01 2.82e-01 2.13e+00  -6.0 1.76e+02  -9.1 8.56e-01 6.68e-01h  1
  87 -2.5548073e-01 2.65e-01 2.00e+00  -6.0 2.74e+03  -9.6 6.47e-02 6.45e-02h  1
  88 -2.5559623e-01 1.46e+00 6.45e+00  -6.0 5.83e+03 -10.1 1.88e-01 1.56e-01h  1
  89 -2.5562368e-01 1.14e+00 3.17e+03  -6.0 3.48e+02  -7.9 1.68e-01 2.28e-01h  1
iter    objective    inf_pr   inf_du lg(mu)  ||d||  lg(rg) alpha_du alpha_pr  ls
  90 -2.5562549e-01 1.13e+00 5.47e+03  -6.0 1.92e+02  -8.3 2.70e-01 1.10e-02h  1
  91 -2.5560754e-01 4.86e-02 9.01e+03  -6.0 8.19e+01  -7.9 4.18e-01 1.00e+00f  1
  92 -2.5563578e-01 1.54e-03 1.57e+00  -6.0 2.33e+00  -6.6 1.00e+00 1.00e+00h  1
  93 -2.5563529e-01 1.76e-03 8.00e-01  -6.0 6.96e+00  -7.1 1.00e+00 9.21e-01h  1
  94 -2.5563650e-01 1.75e-03 1.35e+00  -6.0 3.34e+03  -7.5 3.48e-03 7.15e-04h  2
  95 -2.5563646e-01 1.67e-03 5.00e+00  -6.0 2.43e+01  -8.0 6.01e-01 7.37e-02h  2
  96 -2.5565295e-01 7.06e-02 4.43e-02  -6.0 6.35e+01  -8.5 1.00e+00 1.00e+00h  1
  97 -2.5569117e-01 6.17e-01 4.27e-01  -6.0 1.88e+02  -9.0 1.00e+00 1.00e+00h  1
  98 -2.5574712e-01 1.41e+00 1.53e+01  -6.0 7.05e+02  -9.5 5.31e-01 3.42e-01h  1
  99 -2.5571614e-01 1.10e+00 1.03e+03  -6.0 1.11e+02  -8.1 3.98e-02 2.92e-01h  1
iter    objective    inf_pr   inf_du lg(mu)  ||d||  lg(rg) alpha_du alpha_pr  ls
 100 -2.5571175e-01 1.83e+00 7.10e+02  -6.0 7.13e+01  -8.6 1.98e-01 1.00e+00f  1
 101 -2.5568655e-01 1.26e+00 4.47e+02  -6.0 5.29e+00  -6.4 1.00e+00 3.78e-01h  1
 102 -2.5569225e-01 2.96e-02 1.41e-01  -6.0 1.91e+01  -6.8 1.00e+00 1.00e+00h  1
 103 -2.5569223e-01 1.85e+00 2.75e+01  -6.0 9.78e+01  -7.3 1.62e-01 5.13e-01h  1
 104 -2.5591500e-01 2.61e+01 2.16e+01  -6.0 2.66e+01  -7.8 5.31e-01 1.00e+00h  1
 105 -2.5601176e-01 3.65e+00 3.18e+00  -6.0 1.73e+01  -6.5 1.00e+00 1.00e+00h  1
 106 -2.5608401e-01 4.22e+00 1.29e+01  -6.0 1.73e+01  -6.9 1.00e+00 2.48e-01h  1
 107 -2.5613850e-01 2.83e-01 3.00e-01  -6.0 9.72e+00  -7.4 1.00e+00 1.00e+00h  1
 108 -2.5614615e-01 9.53e-02 6.02e-02  -6.0 8.57e+00  -7.9 1.00e+00 1.00e+00h  1
 109 -2.5615099e-01 9.22e-03 2.13e-03  -6.0 2.46e+01  -8.4 1.00e+00 1.00e+00h  1
iter    objective    inf_pr   inf_du lg(mu)  ||d||  lg(rg) alpha_du alpha_pr  ls
 110 -2.5616327e-01 6.74e-02 9.20e-03  -6.0 6.80e+01  -8.9 1.00e+00 1.00e+00h  1
 111 -2.5620327e-01 3.67e-01 3.88e-02  -6.0 2.06e+02  -9.3 1.00e+00 1.00e+00h  1
 112 -2.5631078e-01 1.11e+00 1.50e-01  -6.0 5.77e+02  -9.8 1.00e+00 1.00e+00h  1
 113 -2.5653708e-01 4.72e+00 1.36e+00  -6.0 1.46e+03 -10.3 1.00e+00 1.00e+00h  1
 114 -2.5674823e-01 1.17e+01 8.35e+00  -6.0 3.22e+03 -10.8 3.72e-01 5.74e-01h  1
 115 -2.5685445e-01 2.75e+01 1.93e+01  -6.0 4.63e+03 -11.2 1.87e-01 3.17e-01h  1
 116 -2.5689028e-01 2.22e+01 8.98e+01  -6.0 4.52e+03    -  2.54e-01 1.95e-01h  1
 117 -2.5691995e-01 1.81e+01 6.01e+01  -6.0 1.96e+03 -10.8 2.81e-01 2.43e-01h  1
 118 -2.5697309e-01 2.73e+01 6.43e+01  -6.0 3.74e+03    -  1.10e-01 2.93e-01h  1
 119 -2.5697901e-01 2.76e+01 1.90e+02  -6.0 2.18e+04    -  4.20e-04 3.05e-02H  1
iter    objective    inf_pr   inf_du lg(mu)  ||d||  lg(rg) alpha_du alpha_pr  ls
 120 -2.5699132e-01 2.56e+01 2.13e+02  -6.0 1.74e+03    -  8.15e-02 7.15e-02h  1
 121 -2.5703512e-01 2.06e+01 1.47e+02  -6.0 1.64e+03    -  1.19e-01 2.02e-01h  1
 122 -2.5714645e-01 1.12e+01 6.74e+01  -6.0 1.26e+03    -  3.86e-01 4.61e-01h  1
 123 -2.5727552e-01 4.79e+00 2.56e+01  -6.0 3.95e+02    -  1.00e+00 5.80e-01h  1
 124 -2.5725832e-01 3.65e+00 1.79e+01  -6.0 3.03e+02  -9.5 3.84e-01 2.39e-01h  1
 125 -2.5730679e-01 6.59e-01 7.02e+00  -6.0 1.23e+02  -9.1 1.97e-01 1.00e+00h  1
 126 -2.5729237e-01 3.74e-01 5.28e-02  -6.0 8.02e+01  -9.5 1.00e+00 1.00e+00h  1
 127 -2.5728978e-01 6.30e-02 6.34e-04  -6.0 2.62e+01  -9.1 1.00e+00 1.00e+00h  1
 128 -2.5729262e-01 5.00e-01 8.09e-03  -6.0 1.05e+02  -9.6 1.00e+00 1.00e+00h  1
 129 -2.5729943e-01 1.23e+00 4.15e-02  -6.0 2.86e+02 -10.1 1.00e+00 1.00e+00h  1
iter    objective    inf_pr   inf_du lg(mu)  ||d||  lg(rg) alpha_du alpha_pr  ls
 130 -2.5730133e-01 8.18e-01 8.11e-02  -6.0 9.86e+01  -9.6 1.00e+00 9.47e-01h  1
 131 -2.5730468e-01 2.07e+00 4.33e-02  -6.0 2.78e+02 -10.1 1.00e+00 1.00e+00h  1
 132 -2.5730505e-01 1.99e+00 4.57e+01  -6.0 3.78e+03    -  7.21e-01 3.99e-02h  2
 133 -2.5730706e-01 1.87e+00 1.64e+01  -6.0 7.47e+02    -  7.87e-01 4.36e-01h  1
 134 -2.5731470e-01 7.57e-02 1.08e-02  -6.0 8.96e+01    -  1.00e+00 1.00e+00h  1
 135 -2.5731535e-01 3.42e-01 3.51e-02  -6.0 1.94e+02    -  1.00e+00 1.00e+00H  1
 136 -2.5731552e-01 3.67e-01 4.89e+01  -6.0 1.19e+04    -  2.49e-01 8.20e-03h  2
 137 -2.5731359e-01 8.57e-01 1.29e+01  -6.0 7.13e+02    -  1.00e+00 3.44e-01h  2
 138 -2.5731406e-01 1.02e+00 1.13e+01  -6.0 8.00e+02    -  1.00e+00 2.17e-01h  2
 139 -2.5731576e-01 1.70e-01 2.41e+00  -6.0 1.22e+02    -  7.94e-01 1.00e+00h  1
iter    objective    inf_pr   inf_du lg(mu)  ||d||  lg(rg) alpha_du alpha_pr  ls
 140 -2.5731626e-01 7.09e-04 9.76e-05  -6.0 8.01e+00    -  1.00e+00 1.00e+00h  1
 141 -2.5731627e-01 6.85e-06 1.56e-07  -6.0 7.71e-01    -  1.00e+00 1.00e+00h  1
 142 -2.5774173e-01 1.01e+00 2.03e+01  -7.5 1.63e+03    -  1.63e-01 2.20e-01h  1
 143 -2.5803535e-01 1.85e+00 4.85e+01  -7.5 1.79e+03    -  5.45e-01 3.20e-01h  1
 144 -2.5813626e-01 1.78e+00 8.72e+01  -7.5 1.55e+03    -  4.99e-01 1.58e-01h  1
 145 -2.5837099e-01 2.43e+00 2.00e+01  -7.5 6.88e+02 -10.6 1.89e-01 4.96e-01h  1
 146 -2.5855701e-01 2.37e+00 5.97e+00  -7.5 1.27e+03    -  6.14e-01 6.76e-01h  1
 147 -2.5858529e-01 1.03e+00 1.50e+01  -7.5 3.72e+02 -11.1 1.00e+00 6.38e-01h  1
 148 -2.5861881e-01 4.46e-01 2.72e-01  -7.5 4.56e+02    -  8.19e-01 1.00e+00h  1
 149 -2.5863673e-01 1.16e+00 4.40e-01  -7.5 3.47e+02 -11.6 3.39e-01 7.00e-01h  1
iter    objective    inf_pr   inf_du lg(mu)  ||d||  lg(rg) alpha_du alpha_pr  ls
 150 -2.5864004e-01 1.72e+00 8.36e-01  -7.5 1.28e+03 -12.0 3.43e-02 1.59e-01h  1
 151 -2.5866468e-01 1.43e+01 9.63e+00  -7.5 8.99e+02 -12.5 2.91e-02 1.00e+00f  1
 152 -2.5865800e-01 1.08e+01 7.75e+00  -7.5 4.04e+02    -  8.01e-02 2.43e-01h  1
 153 -2.5864251e-01 2.06e+00 4.57e+00  -7.5 2.49e+02    -  6.20e-01 8.10e-01h  1
 154 -2.5865489e-01 3.35e+00 2.33e+00  -7.5 6.47e+02    -  4.39e-01 5.62e-01h  1
 155 -2.5866904e-01 6.11e+00 2.12e+00  -7.5 1.15e+03    -  7.76e-05 9.78e-02H  1
 156 -2.5866224e-01 1.30e+00 1.68e-01  -7.5 2.35e+02    -  1.00e+00 1.00e+00h  1
 157 -2.5866314e-01 4.29e-01 2.06e-03  -7.5 1.57e+02 -11.2 1.00e+00 1.00e+00h  1
 158 -2.5866310e-01 4.02e-01 1.23e-01  -7.5 2.97e+02 -11.7 1.00e+00 6.25e-02h  5
 159 -2.5866256e-01 1.67e-01 1.27e-04  -7.5 1.08e+02 -11.2 1.00e+00 1.00e+00H  1
iter    objective    inf_pr   inf_du lg(mu)  ||d||  lg(rg) alpha_du alpha_pr  ls
 160 -2.5866256e-01 1.23e-01 4.23e-03  -7.5 9.04e+01    -  9.89e-01 1.00e+00H  1
 161 -2.5866260e-01 9.19e-03 6.47e-04  -7.5 2.00e+02 -11.7 1.00e+00 1.00e+00H  1
 162 -2.5866272e-01 4.52e-01 5.84e-03  -7.5 5.34e+02 -12.2 1.00e+00 1.00e+00H  1
 163 -2.5866291e-01 6.50e+00 6.83e-01  -7.5 1.04e+04 -12.7 2.07e-01 6.73e-02h  3
 164 -2.5866363e-01 6.34e+00 3.60e-02  -7.5 1.22e+03 -12.2 1.00e+00 1.00e+00H  1
 165 -2.5866383e-01 7.46e+00 1.03e+00  -7.5 2.27e+04 -12.7 9.16e-02 1.33e-02h  4
 166 -2.5866393e-01 7.73e+00 1.94e+00  -7.5 6.26e+04 -13.2 4.51e-02 2.33e-03h  5
 167 -2.5866404e-01 7.61e+00 2.07e+00  -7.5 2.68e+03    -  1.00e+00 5.69e-02h  5
 168 -2.5866555e-01 4.99e+00 1.70e+00  -7.5 1.56e+03    -  3.80e-02 1.00e+00H  1
 169 -2.5866553e-01 3.97e-04 3.91e-04  -7.5 9.53e-01  -9.1 1.00e+00 1.00e+00h  1
iter    objective    inf_pr   inf_du lg(mu)  ||d||  lg(rg) alpha_du alpha_pr  ls
 170 -2.5866627e-01 4.28e+01 1.04e+00  -7.5 3.06e+03    -  4.21e-02 6.58e-01H  1
 171 -2.5866589e-01 2.30e+01 7.27e-01  -7.5 6.48e+02    -  1.00e+00 4.32e-01h  2
 172 -2.5866568e-01 1.32e+01 4.25e-01  -7.5 3.69e+02    -  5.23e-01 4.09e-01h  2
 173 -2.5866563e-01 1.18e-03 9.41e-05  -7.5 4.23e+00  -9.6 1.00e+00 1.00e+00h  1
 174 -2.5866678e-01 1.81e+01 2.91e-01  -7.5 4.02e+03    -  1.52e-01 2.77e-01h  2
 175 -2.5866789e-01 2.76e+01 5.67e-01  -7.5 4.28e+03    -  1.22e-01 2.18e-01h  2
 176 -2.5866934e-01 2.08e+01 8.31e-02  -7.5 1.12e+03    -  9.03e-01 1.00e+00h  1
 177 -2.5866940e-01 4.93e-02 1.98e-03  -7.5 3.34e+01    -  1.00e+00 1.00e+00h  1
 178 -2.5866940e-01 5.03e-04 5.78e-05  -7.5 5.41e+00    -  1.00e+00 1.00e+00h  1
 179 -2.5866940e-01 5.85e-08 2.57e-09  -7.5 5.84e-02    -  1.00e+00 1.00e+00h  1
iter    objective    inf_pr   inf_du lg(mu)  ||d||  lg(rg) alpha_du alpha_pr  ls
 180 -2.5867095e-01 2.25e+00 4.58e+00  -9.0 2.00e+03    -  4.65e-01 1.83e-01h  1
 181 -2.5867420e-01 5.65e+01 7.57e-01  -9.0 3.36e+03    -  3.82e-01 5.38e-01h  1
 182 -2.5867539e-01 3.89e+01 2.46e+01  -9.0 1.50e+03    -  3.93e-03 7.01e-01h  1
 183 -2.5867646e-01 2.20e+01 4.57e+00  -9.0 1.03e+03    -  1.19e-01 9.40e-01h  1
 184 -2.5867776e-01 3.48e+01 2.48e+00  -9.0 1.27e+03    -  4.67e-01 1.00e+00h  1
 185 -2.5867796e-01 4.88e-02 3.76e-01  -9.0 1.17e+01 -10.1 8.48e-01 1.00e+00h  1
 186 -2.5867802e-01 2.71e-02 2.07e-04  -9.0 3.46e+01 -10.6 1.00e+00 1.00e+00h  1
 187 -2.5867814e-01 2.60e-01 5.05e-05  -9.0 1.07e+02 -11.1 1.00e+00 1.00e+00h  1
 188 -2.5867855e-01 2.91e+00 5.56e-04  -9.0 3.57e+02 -11.5 1.00e+00 1.00e+00h  1
 189 -2.5867914e-01 7.39e+00 2.35e-02  -9.0 1.90e+03 -12.0 8.61e-01 2.49e-01h  1
iter    objective    inf_pr   inf_du lg(mu)  ||d||  lg(rg) alpha_du alpha_pr  ls
 190 -2.5867918e-01 8.59e-01 2.49e-02  -9.0 4.87e+02 -12.5 1.50e-01 1.00e+00H  1
 191 -2.5867941e-01 1.54e+00 2.23e-02  -9.0 2.52e+03 -13.0 2.03e-01 1.24e-01h  1
 192 -2.5867958e-01 9.39e+00 1.85e-02  -9.0 7.26e+02 -12.5 1.03e-01 1.00e+00h  1
 193 -2.5868010e-01 9.91e+01 4.90e-02  -9.0 1.32e+04    -  1.30e-02 2.13e-01h  1
 194 -2.5868000e-01 9.34e+01 4.61e-02  -9.0 5.65e+03 -13.0 1.18e-01 9.63e-02h  3
 195 -2.5868149e-01 8.31e+01 7.17e-02  -9.0 3.47e+03 -12.6 4.25e-01 8.41e-01H  1
 196 -2.5868167e-01 7.54e+01 5.97e-02  -9.0 6.53e+03 -13.1 2.58e-01 1.44e-01h  2
 197 -2.5868177e-01 7.50e+01 1.37e-01  -9.0 2.68e+04 -13.5 9.55e-02 6.91e-03h  4
 198 -2.5868323e-01 6.99e+01 3.25e-02  -9.0 3.18e+03 -13.1 2.32e-01 4.51e-01h  1
 199 -2.5868325e-01 6.99e+01 3.97e-02  -9.0 1.27e+05 -13.6 1.45e-02 5.02e-04h  6
iter    objective    inf_pr   inf_du lg(mu)  ||d||  lg(rg) alpha_du alpha_pr  ls
 200 -2.5868339e-01 6.94e+01 6.85e-02  -9.0 3.69e+04 -13.2 4.98e-02 7.54e-03h  3
 201 -2.5868349e-01 6.91e+01 8.16e-02  -9.0 2.94e+04 -13.6 2.05e-02 4.33e-03h  4
 202 -2.5868447e-01 5.93e+01 1.35e-01  -9.0 6.09e+03 -13.2 2.76e-01 1.71e-01h  1
 203 -2.5868454e-01 5.90e+01 1.94e-01  -9.0 3.32e+04 -13.7 5.13e-02 6.39e-03h  4
 204 -2.5868457e-01 5.89e+01 2.31e-01  -9.0 9.65e+04    -  2.41e-02 1.03e-03h  5
 205 -2.5868519e-01 5.23e+01 9.11e-01  -9.0 6.45e+03    -  5.66e-01 1.35e-01h  2
 206 -2.5868805e-01 6.87e+01 8.09e-01  -9.0 2.13e+03    -  6.48e-02 1.00e+00h  1
 207 -2.5869114e-01 5.77e+01 2.12e+00  -9.0 1.84e+03 -12.4 1.48e-01 1.00e+00h  1
 208 -2.5869215e-01 4.34e+01 8.87e+00  -9.0 2.69e+03 -12.8 3.20e-02 3.81e-01h  1
 209 -2.5869380e-01 5.17e+01 4.94e+01  -9.0 1.66e+03 -11.5 3.35e-02 1.00e+00h  1
iter    objective    inf_pr   inf_du lg(mu)  ||d||  lg(rg) alpha_du alpha_pr  ls
 210 -2.5869523e-01 6.16e+01 3.96e+01  -9.0 1.02e+04    -  1.33e-02 1.93e-01h  1
 211 -2.5869571e-01 4.74e+01 2.97e+01  -9.0 3.09e+03    -  1.73e-01 2.48e-01h  1
 212 -2.5869604e-01 4.32e+01 2.47e+01  -9.0 2.70e+03    -  9.33e-02 1.70e-01h  1
 213 -2.5869667e-01 3.60e+01 1.90e+01  -9.0 2.57e+03    -  1.98e-01 2.31e-01h  1
 214 -2.5869710e-01 3.13e+01 1.56e+01  -9.0 2.43e+03    -  1.40e-02 1.77e-01h  1
 215 -2.5869755e-01 2.78e+01 1.32e+01  -9.0 3.14e+03    -  7.22e-02 1.50e-01h  1
 216 -2.5869778e-01 2.47e+01 1.10e+01  -9.0 1.68e+03    -  2.80e-01 1.67e-01h  1
 217 -2.5869823e-01 2.20e+01 8.60e+00  -9.0 2.00e+03    -  4.17e-01 2.21e-01h  1
 218 -2.5869849e-01 1.99e+01 7.90e+00  -9.0 1.75e+03    -  1.04e-02 1.78e-01h  1
 219 -2.5869859e-01 1.87e+01 7.25e+00  -9.0 1.74e+03    -  3.10e-02 8.22e-02h  1
iter    objective    inf_pr   inf_du lg(mu)  ||d||  lg(rg) alpha_du alpha_pr  ls
 220 -2.5869875e-01 1.73e+01 5.64e+01  -9.0 1.65e+03    -  1.58e-02 1.15e-01h  1
 221 -2.5869899e-01 1.62e+01 4.60e+01  -9.0 1.69e+03    -  3.74e-01 1.91e-01h  1
 222 -2.5869911e-01 1.52e+01 4.15e+01  -9.0 1.72e+03    -  3.38e-02 1.02e-01h  1
 223 -2.5869912e-01 1.50e+01 4.08e+01  -9.0 1.61e+03    -  4.26e-02 1.44e-02h  1
 224 -2.5869929e-01 1.58e+01 6.36e+02  -9.0 1.64e+03    -  2.68e-03 3.04e-01h  1
 225 -2.5869974e-01 2.65e+01 5.49e+02  -9.0 1.48e+03    -  9.84e-03 8.22e-01H  1
 226 -2.5869967e-01 4.20e+00 8.58e+01  -9.0 3.25e+01    -  5.19e-02 8.44e-01h  1
 227 -2.5869955e-01 2.74e-03 1.71e+00  -9.0 4.55e+02    -  6.30e-01 1.00e+00H  1
 228 -2.5869966e-01 1.01e+00 3.11e-01  -9.0 5.83e+02    -  1.00e+00 7.96e-01H  1
 229 -2.5869966e-01 2.05e-03 3.26e-06  -9.0 1.02e+01    -  1.00e+00 1.00e+00h  1
iter    objective    inf_pr   inf_du lg(mu)  ||d||  lg(rg) alpha_du alpha_pr  ls
 230 -2.5869966e-01 6.66e-05 2.87e-09  -9.0 1.66e+00    -  1.00e+00 1.00e+00h  1
 231 -2.5869966e-01 2.86e-10 1.74e-14  -9.0 2.33e-03    -  1.00e+00 1.00e+00h  1

Number of Iterations....: 231

                                   (scaled)                 (unscaled)
Objective...............:  -2.5869965729500538e-01   -2.5869965729500538e-01
Dual infeasibility......:   1.7388868123191514e-14    1.7388868123191514e-14
Constraint violation....:   2.8555675933659291e-10    2.8555675933659291e-10
Complementarity.........:   9.0909092604528921e-10    9.0909092604528921e-10
Overall NLP error.......:   9.0909092604528921e-10    9.0909092604528921e-10


Number of objective function evaluations             = 377
Number of objective gradient evaluations             = 231
Number of equality constraint evaluations            = 379
Number of inequality constraint evaluations          = 378
Number of equality constraint Jacobian evaluations   = 233
Number of inequality constraint Jacobian evaluations = 233
Number of Lagrangian Hessian evaluations             = 231
Total CPU secs in IPOPT (w/o function evaluations)   =    515.307
Total CPU secs in NLP function evaluations           =      8.097

EXIT: Optimal Solution Found.
